p cnf 91 377
2 3 24 -32 56 59 0
3 24 -32 56 59 -62 0
52 62 -63 78 82 84 0
2 3 24 -32 56 0
3 23 -50 -51 68 0
-3 -16 -23 67 91 0
7 9 -43 46 -47 0
10 11 26 -28 57 0
10 20 21 22 -72 0
10 -21 22 -69 -72 0
12 13 58 78 79 0
-15 29 -30 -31 57 0
-16 -23 -51 -89 91 0
-19 -23 -51 -81 91 0
-4 -61 78 82 -84 0
7 42 45 46 -55 0
-16 -50 -51 68 -89 0
22 -41 53 71 -72 0
40 -43 45 46 -87 0
1 7 45 60 0
2 -32 -35 -61 0
-2 -5 -6 74 0
3 4 16 23 0
3 4 19 51 0
-3 -16 -23 67 0
-3 -16 67 91 0
-3 -19 -23 89 0
4 23 -51 -68 0
4 -49 -51 -68 0
4 -61 -78 -84 0
6 23 -33 -36 0
-6 -35 36 62 0
7 8 9 -47 0
8 -45 -48 64 0
-8 -9 -46 64 0
-8 -19 46 -64 0
11 12 -28 34 0
13 49 85 -86 0
13 58 -73 -79 0
-17 -18 -19 -47 0
-17 -23 -39 -44 0
18 39 42 69 0
19 -65 74 -80 0
-19 -23 -27 -28 0
20 22 -69 -77 0
21 22 70 88 0
21 23 42 69 0
-21 69 70 88 0
-24 -25 -26 -28 0
26 -27 -28 -31 0
-29 -36 37 73 0
-35 -61 -74 82 0
-40 46 -60 -87 0
-45 -48 55 -83 0
1 2 24 59 0
1 42 45 -87 0
1 -42 60 -83 0
3 -32 -61 -62 0
9 -47 -48 55 0
12 -31 -78 79 0
-16 -49 -50 -51 0
-17 40 -44 71 0
-18 -19 -38 -64 0
-19 -23 30 36 0
-19 -23 -51 81 0
-19 -23 79 80 0
-19 -23 79 84 0
-19 -23 -86 89 0
21 69 -72 -88 0
23 -30 -33 34 0
-23 -86 -89 91 0
-29 -30 57 -73 0
-32 -56 59 -62 0
-42 46 -60 83 0
1 8 -88 0
1 -83 87 0
-1 -2 84 0
-1 -24 62 0
-1 -70 -83 0
2 -35 65 0
-2 -5 61 0
-2 -65 -82 0
3 4 -61 0
-3 4 51 0
-3 50 67 0
-3 50 89 0
-3 51 91 0
4 78 79 0
-4 52 82 0
5 -36 63 0
-5 -35 52 0
7 8 9 0
7 55 64 0
-7 -8 -42 0
8 -46 64 0
-8 41 -54 0
-8 42 -83 0
-8 -45 -55 0
-8 -77 88 0
-9 -45 48 0
10 11 -19 0
10 26 -27 0
10 -34 -57 0
-10 -12 73 0
-10 27 34 0
-10 27 -34 0
11 -23 -76 0
12 -14 -31 0
12 58 -73 0
-12 -78 -79 0
13 49 85 0
13 57 -78 0
13 67 -68 0
13 67 85 0
13 67 -90 0
13 -68 -86 0
13 86 -90 0
13 -86 91 0
-13 -49 90 0
-13 68 90 0
-14 -15 76 0
15 -29 30 0
15 73 80 0
-15 58 -80 0
16 -50 51 0
-16 67 68 0
17 19 40 0
17 44 -71 0
17 -72 77 0
-17 22 44 0
18 38 64 0
-18 -54 81 0
19 32 -33 0
19 39 41 0
19 -50 -91 0
-19 -24 34 0
-19 25 56 0
-19 25 65 0
-19 -41 -48 0
-19 -68 -81 0
-19 81 -85 0
20 -38 53 0
-20 -22 70 0
-20 69 70 0
-22 -41 -53 0
-22 70 -71 0
23 26 28 0
23 39 54 0
23 41 -88 0
23 47 64 0
23 -74 75 0
23 -75 -76 0
-23 -25 -34 0
-23 -26 -32 0
-23 -38 -54 0
-23 -54 81 0
24 -35 61 0
-24 35 59 0
-24 35 -59 0
25 27 56 0
25 29 30 0
25 30 -35 0
25 65 74 0
-25 -27 -33 0
26 31 34 0
-26 28 31 0
-27 -31 57 0
-27 -33 -56 0
29 37 73 0
-31 -76 -80 0
-31 78 -79 0
-32 -35 -59 0
-35 61 82 0
36 -37 63 0
38 -54 -72 0
-39 -40 -43 0
-39 -48 -55 0
45 70 83 0
-45 48 55 0
47 -64 -81 0
-49 -50 -91 0
50 66 67 0
50 -66 89 0
-50 51 -85 0
-50 -66 89 0
-50 -85 -91 0
51 -81 91 0
-51 81 85 0
65 -74 -75 0
66 67 -90 0
-66 86 -89 0
-66 86 90 0
-66 -86 -89 0
67 68 90 0
-69 -72 88 0
-74 -75 76 0
-85 90 -91 0
1 2 0
1 6 0
1 8 0
1 24 0
1 -32 0
1 -52 0
1 59 0
-1 -26 0
-1 32 0
-1 -56 0
-1 -60 0
-1 -88 0
2 3 0
2 5 0
2 56 0
2 -56 0
-2 -6 0
-2 35 0
-2 -65 0
3 -21 0
3 25 0
3 -33 0
3 -50 0
3 -62 0
3 -87 0
-3 -40 0
-3 50 0
-3 -68 0
4 -36 0
4 40 0
4 -49 0
4 -52 0
4 61 0
4 89 0
-4 -23 0
-4 -61 0
-4 70 0
-4 79 0
5 7 0
5 -52 0
5 -62 0
5 -82 0
5 -84 0
-5 -24 0
-5 63 0
-5 -65 0
-5 78 0
-5 -78 0
6 35 0
6 -37 0
6 -62 0
6 -82 0
-6 52 0
-6 75 0
7 55 0
7 64 0
-7 -45 0
-7 -46 0
-7 -60 0
-7 87 0
8 -10 0
8 -42 0
8 48 0
8 70 0
-8 -83 0
-8 87 0
-8 -87 0
9 40 0
9 -48 0
9 55 0
-9 -19 0
-9 -40 0
-9 43 0
10 -27 0
10 -58 0
10 60 0
10 -70 0
10 -77 0
10 83 0
-10 -11 0
-10 24 0
-10 57 0
-10 -59 0
-10 -67 0
-10 -70 0
-10 -73 0
-10 -83 0
11 -12 0
11 14 0
11 26 0
11 -30 0
11 -80 0
-11 -14 0
-11 31 0
-11 -57 0
-11 -58 0
-11 80 0
12 25 0
12 -27 0
12 -34 0
-12 -13 0
-12 -37 0
-12 -57 0
-12 -58 0
13 -73 0
13 79 0
13 86 0
13 91 0
-13 14 0
-13 -67 0
-13 -76 0
-13 86 0
14 31 0
14 -57 0
14 -63 0
14 73 0
14 79 0
14 -79 0
-14 57 0
-14 -73 0
15 31 0
15 57 0
15 -57 0
15 58 0
15 -58 0
-15 -58 0
-15 80 0
16 49 0
16 50 0
16 56 0
16 -56 0
-16 -49 0
-16 89 0
17 18 0
17 42 0
17 55 0
17 60 0
-17 -22 0
-17 48 0
-17 -72 0
-17 -77 0
18 41 0
18 47 0
18 54 0
-18 -54 0
-18 -55 0
-18 -60 0
-18 -77 0
-18 79 0
-18 81 0
19 21 0
19 -26 0
19 -36 0
19 38 0
19 47 0
19 54 0
19 59 0
19 -68 0
19 69 0
19 -71 0
19 75 0
19 85 0
-19 -34 0
-19 -43 0
-19 -60 0
-19 -79 0
-19 -84 0
-19 -85 0
-19 86 0
20 -70 0
20 -72 0
-20 -22 0
-20 41 0
-20 72 0
-20 77 0
21 23 0
21 -42 0
21 -81 0
-21 42 0
-21 -70 0
